(set-logic QF_S)
(declare-fun var0 () String)
(declare-fun var1 () String)
(declare-fun var2 () String)
(declare-fun var3 () String)
(declare-fun var4 () Int)
(declare-fun var5 () Int)
(assert (> (str.len var0) (str.to.int var1)))
(assert (str.in.re var2 re.allchar))
(assert (str.in.re var3 re.allchar))
(assert (<= (str.indexof var1 var3 var4) (str.indexof var0 var0 var5)))
(check-sat)